122     4       
22      21      18      24      
0       0       0       0       0       3       2       3       4       
8       0       0       0       5       3       8       9       56      
4       0       0       0       1       3       7       10      14      
8       7       0       0       0       3       5       6       11      
3       2       0       0       0       2       46      60      
10      0       7       0       0       3       17      20      24      
5       0       0       8       0       3       11      41      74      
9       0       1       0       0       3       12      19      35      
9       0       0       0       7       1       105     
9       7       0       0       0       3       38      52      53      
3       0       0       0       8       3       13      16      25      
6       2       0       0       0       3       22      42      63      
7       0       4       0       0       3       37      60      111     
3       3       0       0       0       3       15      36      88      
1       0       0       1       0       3       18      27      65      
7       0       2       0       0       2       29      30      
2       6       0       0       0       2       54      76      
8       8       0       0       0       3       38      96      112     
6       0       0       5       0       3       28      45      84      
8       0       0       0       8       3       21      31      51      
10      5       0       0       0       2       33      44      
7       0       10      0       0       3       23      26      34      
7       0       0       0       8       3       29      37      61      
2       0       0       1       0       2       95      106     
8       0       0       0       6       3       40      56      73      
9       5       0       0       0       2       52      81      
1       0       0       6       0       3       32      40      43      
6       0       0       0       7       2       49      99      
5       2       0       0       0       1       103     
6       0       0       0       6       1       72      
9       0       9       0       0       2       62      87      
3       0       0       0       3       3       73      97      108     
5       0       1       0       0       3       55      64      104     
2       0       6       0       0       3       44      47      83      
4       0       6       0       0       3       50      94      107     
5       0       0       0       6       1       66      
3       0       0       0       3       2       39      79      
1       5       0       0       0       3       48      69      82      
2       0       0       4       0       3       53      54      57      
1       0       8       0       0       1       68      
10      8       0       0       0       2       68      80      
7       7       0       0       0       2       85      90      
1       0       0       2       0       1       78      
1       0       0       9       0       2       54      116     
1       0       10      0       0       2       48      62      
2       0       5       0       0       1       89      
10      0       0       8       0       1       75      
3       0       0       0       1       2       71      72      
8       0       0       0       6       1       52      
10      0       5       0       0       2       92      103     
4       0       2       0       0       1       53      
9       0       0       1       0       1       67      
5       0       0       0       6       3       58      59      77      
4       4       0       0       0       2       64      120     
8       8       0       0       0       1       94      
5       0       2       0       0       3       70      82      91      
8       0       0       9       0       2       78      97      
3       0       1       0       0       2       86      101     
9       0       0       0       2       1       81      
1       0       10      0       0       1       107     
7       0       0       0       10      3       99      102     113     
6       0       0       9       0       2       69      115     
5       8       0       0       0       1       89      
10      4       0       0       0       1       72      
9       0       0       4       0       2       78      83      
9       0       10      0       0       1       100     
5       0       0       10      0       2       77      87      
2       0       0       0       5       1       117     
10      0       1       0       0       1       94      
2       0       0       0       8       1       92      
8       0       0       0       4       2       81      110     
5       0       0       7       0       1       93      
3       0       0       0       2       1       98      
8       9       0       0       0       1       82      
9       0       0       0       2       2       104     117     
9       0       0       0       3       2       80      97      
9       2       0       0       0       1       108     
3       0       0       5       0       1       84      
7       0       5       0       0       1       90      
1       0       0       6       0       2       86      113     
7       2       0       0       0       1       121     
7       0       0       0       10      2       99      110     
9       9       0       0       0       3       89      91      114     
8       0       9       0       0       2       86      120     
5       0       0       6       0       1       95      
1       0       0       5       0       2       93      107     
5       8       0       0       0       1       98      
7       0       3       0       0       2       109     112     
5       0       0       9       0       2       98      105     
10      10      0       0       0       1       92      
3       0       3       0       0       2       96      102     
5       0       2       0       0       2       100     114     
9       0       4       0       0       1       109     
1       0       0       6       0       2       95      106     
1       1       0       0       0       2       100     110     
10      0       0       0       10      1       108     
7       1       0       0       0       2       101     105     
2       0       0       0       10      1       102     
5       0       0       0       2       2       101     117     
4       0       9       0       0       1       119     
5       0       0       0       10      2       103     115     
9       0       10      0       0       2       104     112     
2       0       0       0       10      1       116     
8       0       0       2       0       1       111     
8       0       0       0       1       1       106     
7       5       0       0       0       1       116     
4       0       0       1       0       1       109     
9       0       0       6       0       1       121     
10      2       0       0       0       1       114     
1       0       2       0       0       2       111     113     
2       0       2       0       0       1       118     
4       0       2       0       0       1       115     
5       0       1       0       0       1       121     
3       7       0       0       0       1       118     
9       0       0       0       6       1       120     
8       0       9       0       0       1       119     
7       0       0       0       8       1       118     
3       0       0       0       2       1       119     
4       0       8       0       0       1       122     
7       0       0       10      0       1       122     
3       0       1       0       0       1       122     
0       0       0       0       0       0       